c Random 9-CNF over 40 variables and 400 clauses
c Generated with `cnfgen`
c (C) 2012-2016 Massimo Lauria <lauria.massimo@gmail.com>
c https://massimolauria.github.io/cnfgen
c
c COMMAND LINE: cnfgen --output tmp-9-40-400.dimacs --output-format dimacs randkcnf 9 40 400
c
c sdimacs generated by gen-sdimacs
c
p cnf 40 400
e 21 22 23 24 25 26 27 28 29 30 31 32 33 34 35 36 37 38 39 40 0
r 0.37 1 2 3 4 5 6 7 8 9 10 11 12 13 14 15 16 17 18 19 20 0
-4 10 -16 -18 -28 29 -30 -36 -40 0
2 5 -9 -15 18 -22 -31 -39 40 0
1 -5 -10 -11 -12 -13 -28 -30 35 0
-1 -5 -6 -10 -15 -21 -22 31 34 0
8 -9 14 -18 23 26 32 34 38 0
11 -15 -19 -21 22 25 -26 -27 36 0
11 -12 13 -19 -22 26 28 31 -38 0
4 10 15 20 -21 -26 -31 -35 38 0
-3 6 7 10 15 -23 -31 35 -39 0
4 8 -16 20 21 -26 -31 -35 40 0
3 -7 12 -15 -18 -19 -23 38 -39 0
9 10 13 -15 17 -18 -22 -26 27 0
-1 -3 -8 -11 -18 19 -22 -26 28 0
12 13 -23 -24 26 31 -34 -35 38 0
-4 -5 -6 -14 -22 -24 27 32 -33 0
3 9 12 -13 18 -25 30 -35 -39 0
-1 -2 21 -22 -34 -35 36 -37 38 0
-2 -7 9 -17 20 -25 -27 -29 -36 0
-1 6 -9 -14 17 18 -20 27 -35 0
14 19 23 25 27 -29 33 -37 -39 0
-7 -8 -17 -18 21 -24 32 -37 39 0
1 -5 7 9 -12 -25 29 -32 -39 0
-5 -9 -13 -14 -21 31 34 -37 -40 0
2 3 4 17 -19 -30 -36 37 -40 0
-1 7 -8 23 -26 -30 32 -33 36 0
6 10 11 -15 16 -21 23 -25 -27 0
6 -14 19 -24 25 -27 29 35 -36 0
1 3 -4 -12 18 22 34 -38 -39 0
3 -4 -9 13 16 22 32 -33 35 0
-3 -5 -6 15 -20 -23 25 -28 -30 0
-2 7 16 -20 -22 -29 -30 -33 -34 0
2 -5 7 10 22 -25 33 34 38 0
1 2 -8 11 13 19 -21 -32 -36 0
-4 6 -11 -12 17 -26 31 -37 38 0
2 -12 24 -25 -29 -32 33 -36 -38 0
-2 -3 -8 -9 -20 -23 27 31 -34 0
-9 -10 -13 -19 33 35 -36 38 39 0
4 5 6 -8 -11 15 17 -22 -32 0
-3 -5 -9 18 -20 23 -25 26 -30 0
-5 -8 -9 -10 -18 26 -27 -31 -36 0
-7 9 18 19 -21 22 25 -31 -36 0
-6 -17 20 22 23 25 27 28 -30 0
2 -6 -8 -19 -22 27 30 32 34 0
-8 -9 24 26 -34 -36 -37 -38 40 0
-3 4 6 -14 -15 17 21 -38 39 0
9 17 -18 20 -26 28 31 -34 -36 0
-12 16 -18 25 -27 -30 34 37 38 0
1 -11 14 18 -21 -28 30 -33 -39 0
10 14 -17 18 -20 -22 -26 32 -39 0
-3 14 15 27 30 33 -37 38 -40 0
-3 -6 7 -9 -12 19 29 -38 40 0
5 14 15 -17 -21 -23 -24 -32 36 0
3 -5 -7 11 -14 20 -31 -33 -37 0
7 -8 -21 -22 -25 -28 -32 -39 -40 0
8 -11 14 -17 -20 27 34 -38 39 0
-3 6 7 -15 -17 -31 -32 35 40 0
-3 -4 -15 -16 -17 -19 23 -29 38 0
-2 -11 -13 -14 -26 27 -32 34 35 0
1 -6 17 -22 -23 26 27 30 -33 0
8 12 20 23 -26 30 -32 -34 -37 0
6 7 11 17 -21 -26 34 -35 38 0
-5 -6 -8 10 -18 -20 -26 33 -34 0
-13 22 -24 26 -28 33 -35 36 -40 0
4 -16 18 -23 -24 -33 34 37 -39 0
-8 13 18 23 -29 -32 -34 37 -38 0
-3 -7 -17 23 28 -30 31 -33 -38 0
1 -4 -6 -11 15 16 -19 20 22 0
-4 -7 14 -15 17 24 -35 -37 -38 0
13 14 20 -22 -23 27 -28 -34 37 0
5 -10 -12 20 22 29 -30 32 -33 0
-3 -4 -9 10 15 -27 28 31 33 0
-5 -6 12 18 -19 25 -27 28 32 0
-4 11 -15 -16 -21 -24 -26 35 -38 0
-4 -7 -10 -12 21 25 -27 -36 -40 0
-3 7 10 11 17 18 19 -30 -32 0
-17 18 19 -21 23 26 29 -33 -38 0
6 -9 -19 -21 -22 -24 26 28 -38 0
-3 11 18 -19 22 24 -26 -32 34 0
-3 -4 -6 21 23 -25 -26 37 38 0
9 14 -16 18 30 -32 -33 -34 -39 0
5 6 9 -16 -17 -18 -22 25 -31 0
-13 14 17 22 -27 -33 -35 -36 -38 0
2 -4 -7 13 25 -26 34 37 38 0
7 -11 -12 -17 -24 29 -35 -38 -39 0
2 -9 21 22 -23 -30 -31 36 38 0
19 21 -22 23 -24 -25 32 -37 38 0
-1 5 9 -13 -25 29 31 -33 37 0
4 5 -6 10 -13 -17 -24 28 36 0
4 5 6 -7 9 -12 25 -28 -36 0
-3 13 15 -22 -28 30 -33 -37 39 0
-5 -8 -10 12 15 -16 -34 35 -37 0
-7 -9 -17 -19 27 -29 31 -33 35 0
-4 -5 7 -18 19 -30 -33 34 -39 0
-2 6 16 -18 21 -23 -29 30 33 0
4 7 -15 22 -30 -31 33 35 -39 0
-4 21 23 -24 -30 -31 -33 35 -40 0
-3 4 8 9 17 -19 -21 29 -36 0
-2 -3 7 -14 -24 -26 -29 32 38 0
-1 3 -20 22 -23 33 -35 37 -39 0
5 8 -13 -16 -18 21 27 -34 -40 0
11 -15 -21 24 -25 -28 -34 37 40 0
-1 2 -7 13 25 26 -34 -37 38 0
2 -3 -12 15 -21 -26 -33 36 37 0
-3 10 -15 17 18 21 -24 27 31 0
2 5 -17 19 -22 32 -35 -38 39 0
1 2 9 15 -20 -26 -27 -32 -33 0
5 -6 8 -9 -22 25 27 -32 -35 0
9 17 -18 20 24 -27 35 -36 39 0
-11 13 -14 -17 21 32 33 -35 -40 0
5 -12 -13 18 19 24 32 -36 -37 0
-6 -7 -10 -11 19 -23 -27 -32 34 0
2 -8 12 16 17 20 35 -39 40 0
-4 5 -20 25 30 31 -32 36 -38 0
4 8 -9 -12 -14 -21 -28 34 40 0
1 -2 8 -18 26 -27 30 -31 40 0
1 10 12 -21 -25 -29 32 34 -36 0
-3 -6 -8 14 -16 22 -29 30 31 0
7 -8 -9 -13 14 15 21 26 32 0
5 -7 9 10 16 26 31 37 39 0
5 6 9 -11 -13 -20 -22 32 -37 0
1 -4 -18 19 -21 -33 36 37 -40 0
4 12 -13 14 -16 21 26 -29 33 0
-1 -8 17 24 -26 28 -33 -35 -39 0
-4 -5 6 -7 -11 17 32 33 40 0
1 -6 -8 -11 -14 -20 -27 -38 -39 0
-7 9 22 -26 31 -32 34 38 -39 0
-8 -11 12 16 17 -18 20 24 -26 0
1 -3 -4 12 -16 -22 27 28 -31 0
-1 3 4 -8 -10 11 -15 -33 38 0
-1 5 -11 -12 -14 -29 30 -38 -39 0
-5 -8 10 -16 24 27 33 -34 -39 0
7 -15 -16 -18 24 25 28 34 -38 0
6 -17 -22 -24 27 29 30 -32 37 0
-1 11 16 20 -25 -27 -33 36 40 0
4 -13 -14 -23 -25 26 -34 -37 40 0
-4 6 7 9 10 -18 -26 -28 34 0
-5 6 -7 -18 21 -22 -24 30 37 0
5 -7 19 -22 -26 34 -35 -36 -39 0
-1 -7 -11 -17 18 22 23 -25 40 0
-5 -8 -11 15 -23 25 33 34 -37 0
-11 -12 -14 -22 -25 -30 -34 38 -39 0
-3 -13 -17 22 -24 -30 32 35 -38 0
-3 7 -9 12 24 25 -27 -31 36 0
-3 -18 -24 -26 -27 29 -31 33 35 0
-7 -10 13 -19 -22 23 28 -31 38 0
1 -6 -11 -12 17 20 -29 31 -35 0
2 3 -14 -19 22 -23 -28 -32 -33 0
5 -17 22 -23 24 26 31 -34 -38 0
-4 -9 -11 12 13 19 -29 -31 -34 0
-4 13 17 19 23 24 -26 34 -37 0
-1 6 11 -23 25 -35 37 39 -40 0
-3 -5 17 -20 -22 -27 -29 -30 -38 0
-8 -11 21 -24 -25 29 32 33 -35 0
-3 -5 -18 -20 23 26 28 -39 -40 0
4 8 -13 -18 21 26 27 -31 40 0
8 11 15 16 -19 26 -29 -31 -40 0
3 -5 -9 -11 -19 21 -23 28 -40 0
1 -13 14 -17 26 27 -34 37 -40 0
1 2 -8 11 -19 23 25 33 -36 0
-8 12 -17 18 21 22 -28 30 -32 0
-2 5 -19 20 -26 -29 -31 32 -33 0
-3 5 11 20 -26 28 -31 33 -36 0
-1 11 14 17 18 31 36 38 39 0
1 10 20 21 -22 -25 30 -31 38 0
4 -6 -18 20 27 -29 30 31 40 0
8 12 -20 22 24 -26 -28 32 35 0
-3 8 -13 -21 26 -32 -35 -36 -40 0
-6 9 13 19 24 -26 -27 -30 -38 0
3 -5 9 -12 19 -21 -24 -26 -29 0
1 -3 -15 19 21 -25 29 -33 -35 0
-7 -13 16 -19 22 25 26 -27 38 0
1 10 -19 23 24 -25 26 27 38 0
6 -17 20 -22 23 24 26 27 -37 0
-4 17 19 -21 23 27 -30 -37 -38 0
1 -3 -7 -13 18 -19 21 22 -36 0
-1 2 -4 -11 24 26 28 -31 -33 0
2 5 8 -13 -18 19 26 -34 36 0
9 -15 16 -18 20 21 -26 -33 35 0
-4 -7 -17 -20 -25 26 34 35 36 0
-3 9 -13 15 -22 -24 -35 -36 -40 0
1 -3 -12 19 -20 22 28 -31 40 0
8 -17 18 24 -27 -33 -37 -39 -40 0
7 9 15 18 -26 29 35 36 -38 0
3 -4 8 -11 -16 18 22 -24 34 0
1 5 -13 -25 29 -30 -31 -32 34 0
-1 -2 5 6 16 -19 -22 -26 38 0
-1 -12 17 -22 23 26 33 35 38 0
-7 -9 -13 14 18 20 -22 -27 28 0
-3 5 8 12 17 -26 29 30 -34 0
-11 12 -14 -17 22 23 27 29 36 0
9 -14 -16 17 19 -21 22 26 37 0
1 -6 8 -10 -19 -31 -36 38 -40 0
-5 -7 8 -10 -19 -21 -24 -37 -38 0
-3 -7 -12 -15 -17 22 -28 -33 40 0
-6 -17 -29 31 32 -34 -35 -36 39 0
6 7 8 -9 -22 24 -28 -33 -39 0
-6 -8 -13 17 -20 26 28 -34 -40 0
3 -7 11 -13 -14 -23 -27 29 33 0
4 6 -8 -9 -12 14 16 26 -28 0
-9 -14 -17 20 21 -28 -36 37 -40 0
-1 4 -16 -17 18 -19 21 24 -26 0
-1 2 -3 11 -13 17 -18 -35 38 0
2 4 13 24 26 -29 -31 -32 -37 0
2 -3 -10 -12 -16 25 29 -32 -36 0
9 12 16 -17 -23 29 -31 -33 -35 0
4 15 19 23 29 31 -32 -36 40 0
3 4 5 9 -10 14 -19 25 -32 0
-5 8 -9 10 -17 23 -29 33 37 0
-3 -6 11 -14 -17 18 34 39 -40 0
-13 -18 -19 -23 24 -25 -27 -29 35 0
-1 -4 -8 -10 21 -22 34 37 -39 0
8 -15 -17 20 21 25 -29 -33 39 0
3 5 9 13 -17 -20 22 28 34 0
-12 -17 18 -20 -23 26 29 30 -32 0
7 -15 17 20 22 23 -31 -33 40 0
5 -12 14 16 19 -20 22 -28 30 0
-4 -6 8 -10 13 -14 -15 18 -28 0
6 8 -12 -17 18 -19 28 31 35 0
-10 -16 21 25 -26 -33 -36 -37 38 0
-3 5 6 7 11 -23 33 -34 40 0
4 7 -9 10 -11 22 35 36 37 0
-2 -3 7 8 -12 -20 23 27 -30 0
-4 -5 7 -8 -18 -21 -24 -29 33 0
-6 -8 13 -15 -18 -20 -21 -22 -24 0
2 -7 8 9 -10 -25 32 -33 34 0
2 3 4 8 -11 28 31 36 37 0
9 11 -13 16 -23 -24 26 31 40 0
-1 -3 -11 12 14 -17 19 25 -27 0
-6 16 -22 -23 27 30 33 34 -38 0
2 -4 5 9 -14 32 -33 -34 -39 0
-3 -6 10 -12 -18 19 -20 24 -34 0
5 -15 -17 -20 30 31 -32 36 -38 0
-5 13 -23 28 -29 -31 34 36 39 0
4 -7 9 -12 16 -18 27 30 32 0
-4 12 -14 17 19 22 -27 36 -39 0
6 -8 13 18 -19 -28 33 -35 -36 0
-1 -7 13 -14 -18 -31 32 -35 39 0
-7 -9 15 20 21 22 23 28 -31 0
-2 6 11 15 18 -23 36 -37 38 0
-8 10 11 12 -16 -24 27 -33 -37 0
-1 -9 -15 -16 18 -25 -30 31 -36 0
-5 -9 15 22 23 -27 -28 -29 -30 0
1 9 10 16 -20 -35 36 38 40 0
-5 6 -7 -28 29 -34 -35 -39 40 0
-2 18 23 -26 -28 35 37 38 -40 0
3 -4 -6 -11 -14 23 31 -32 40 0
-9 18 -26 -27 28 32 37 38 -40 0
1 6 11 -18 21 26 -27 35 39 0
-2 -4 5 8 28 -30 31 38 -39 0
-2 -9 12 16 -27 -29 30 38 -39 0
1 -4 10 16 -28 -32 33 -38 -40 0
2 -9 -10 -11 -12 -17 -19 -26 -40 0
8 -10 -13 -20 22 24 26 27 -36 0
-2 -10 -11 -13 17 22 27 -33 35 0
-7 -10 11 17 -20 32 34 -39 -40 0
-3 -14 -17 -19 21 27 30 31 -35 0
-6 7 -12 -15 17 19 -22 35 37 0
-14 15 -18 -20 -21 24 27 -30 -32 0
-1 2 3 12 -17 28 34 -36 -37 0
5 -16 -18 -28 -33 -34 35 -36 38 0
-1 -13 -19 25 -27 -29 -33 -35 -36 0
-2 -3 6 10 -17 -19 20 -32 34 0
2 3 5 -12 -15 19 22 -25 -39 0
-2 -12 13 27 -33 35 -37 -38 39 0
-8 -14 18 -21 24 -28 -30 37 -39 0
-3 -7 23 27 -28 -34 36 37 38 0
-2 -13 14 -20 -21 28 30 37 -39 0
5 -11 12 -13 21 23 34 -35 -39 0
-18 23 24 26 -28 31 35 37 39 0
8 -14 16 -17 19 -21 -25 -29 33 0
-2 -3 6 -9 -12 17 -20 21 31 0
-1 4 -7 10 -11 13 20 21 -31 0
-2 -3 -6 -7 -14 -15 18 23 -26 0
1 2 7 -8 16 26 -29 36 39 0
-5 9 10 -19 -27 29 -33 -34 36 0
-3 -7 -14 -15 -18 -23 -25 29 38 0
-7 10 -11 -12 19 -20 24 31 -35 0
-3 -4 6 -12 18 -20 26 31 -35 0
-2 11 12 14 17 18 26 28 -34 0
-2 -7 -10 -11 -12 -17 -21 -28 40 0
-3 7 17 19 -27 29 30 -31 39 0
-6 17 -19 23 27 29 -31 -35 -36 0
2 3 -4 -10 -11 17 -31 32 -39 0
-1 -7 12 -20 -24 30 31 -37 -40 0
12 19 -21 -26 29 -31 32 -36 39 0
2 -3 -12 14 18 19 24 32 38 0
3 5 -7 8 10 12 13 -16 -26 0
-8 -20 -21 22 -27 -30 -31 -33 34 0
-5 8 -13 22 -27 32 -35 37 40 0
1 -5 -6 9 -10 -13 -15 -25 26 0
-5 8 -9 -20 -22 -25 27 32 -40 0
3 -10 -20 22 -24 25 31 36 39 0
-3 -11 -12 -14 -16 -18 -26 37 40 0
-3 10 11 13 14 -19 -23 -27 36 0
6 13 15 20 27 -28 38 39 -40 0
-7 10 -16 -18 21 -37 -38 -39 -40 0
-5 -6 -10 23 -29 32 34 38 39 0
-9 -10 15 23 24 -25 -27 29 -36 0
-8 9 11 13 22 23 -26 28 39 0
-9 -14 -15 22 27 -28 -30 -32 -35 0
-2 -7 10 -11 12 15 -25 31 40 0
2 -3 -15 -25 -29 30 -34 -35 37 0
4 5 -24 26 -29 30 31 -33 -35 0
4 -18 19 -22 24 -26 31 -34 38 0
-1 -9 11 -17 -20 24 27 -37 -39 0
-12 -13 -17 -19 -21 27 31 35 37 0
1 9 10 -21 -25 30 -34 -37 -38 0
2 -3 14 -16 -23 25 26 -32 -33 0
1 4 -8 11 -16 18 33 35 39 0
-2 9 12 -13 14 18 -19 -27 37 0
15 17 -20 24 27 28 -30 35 36 0
1 -3 6 -13 -15 -18 20 -27 -30 0
2 3 14 -16 18 -29 -30 33 39 0
-2 6 -8 -9 14 15 -28 -31 -36 0
-4 -5 -7 -17 -19 32 37 38 40 0
3 -7 -14 15 20 26 -32 -34 40 0
2 -4 15 17 -18 20 -22 -37 -39 0
-9 14 -16 21 -27 -29 -36 -38 -39 0
-1 -6 -12 -13 14 -17 -19 -22 29 0
-4 24 25 29 33 34 36 37 39 0
9 10 14 -17 20 -22 -25 -32 -38 0
2 4 8 9 -15 -16 19 32 -35 0
-5 -16 20 26 -28 33 37 38 39 0
3 -7 13 -16 20 -22 -25 -29 -34 0
-7 -10 -11 -19 21 -22 24 29 -37 0
4 6 7 -13 -31 33 -34 39 -40 0
-1 13 -14 23 24 25 -29 -31 33 0
4 -9 10 20 23 -24 -29 31 -36 0
-3 14 16 -18 -25 -26 31 33 40 0
-11 18 -22 24 -32 -33 -35 -36 39 0
4 -6 10 19 -20 -24 30 -33 -37 0
5 6 12 -16 -19 22 -31 -37 -40 0
-4 7 -11 13 -20 32 -35 37 38 0
5 12 -13 -19 22 24 -28 29 -34 0
-3 12 -19 -24 -29 30 -32 38 39 0
1 4 9 15 21 -23 24 -31 35 0
10 18 -26 27 -28 -32 33 -39 40 0
-3 11 -14 -19 21 -22 31 -36 37 0
4 -5 11 -12 -13 19 -29 -34 -40 0
1 4 -5 -22 26 -30 33 -34 -35 0
1 2 -6 13 14 16 18 -19 -25 0
-1 4 -7 -16 -19 -30 -37 -39 -40 0
-4 10 11 14 -17 24 27 -29 37 0
2 -4 8 -16 -23 24 -30 31 38 0
3 4 -13 -17 -19 -25 27 -34 39 0
3 -4 8 -11 14 -15 -30 -36 -37 0
-5 14 -18 -20 -21 28 36 -39 -40 0
4 -10 -16 20 22 28 -30 -33 -37 0
-8 -12 -13 15 -19 -24 -25 32 -40 0
-7 -12 26 -28 29 30 -31 37 -38 0
-3 -6 -9 22 -24 32 33 36 38 0
4 7 -10 -14 22 30 -33 36 -39 0
-11 -12 -17 -20 -25 -26 -30 -36 40 0
-5 -7 15 19 20 -22 -24 33 -34 0
-2 -6 16 -17 22 24 27 -28 38 0
-4 8 -14 -16 21 23 -24 29 -30 0
6 -11 15 20 -25 28 -34 38 -39 0
-11 13 16 17 18 -19 25 -32 37 0
-1 5 7 -11 14 -26 -36 -38 -39 0
2 4 -5 -9 15 24 -30 -34 -38 0
5 -20 22 -25 26 -29 -31 -34 37 0
-8 -9 17 18 -22 23 -29 32 34 0
-2 6 -10 -19 -28 32 35 -38 39 0
-10 17 -21 26 -27 -30 31 33 36 0
-3 19 22 -23 29 -32 34 -38 -39 0
-8 15 22 23 28 -29 -30 34 36 0
-2 -8 10 -15 29 -34 36 37 38 0
4 -6 -10 15 23 26 29 31 34 0
6 9 -16 -29 -30 -32 34 -36 -40 0
5 14 -15 16 17 -19 26 -32 -39 0
-1 11 -19 -22 -26 -30 -31 34 40 0
5 7 13 14 -24 -26 -27 33 37 0
-2 4 8 -14 18 -20 -33 -37 -38 0
2 12 13 16 -18 26 -30 34 36 0
8 -10 18 -22 25 -32 33 -37 -40 0
-3 6 -12 14 15 -20 30 35 -40 0
8 16 -18 -19 -22 -26 -28 33 36 0
4 -7 -10 -13 18 19 26 -28 31 0
7 8 14 18 -20 24 27 -29 34 0
-2 -3 -6 7 8 -9 -16 -24 25 0
3 -18 -21 -23 28 30 -33 -36 40 0
3 10 -16 -23 -29 -33 34 -37 -39 0
-6 8 9 14 -25 29 30 -34 -40 0
-5 -6 7 10 13 16 -17 -21 39 0
2 -4 -7 -8 -18 -24 -28 -29 32 0
-1 12 -14 -16 17 -26 27 36 -38 0
-6 -9 -10 -11 12 -30 -37 39 40 0
-1 6 11 -15 20 -22 -32 -34 35 0
-1 6 -9 -14 16 26 -27 -28 38 0
-7 -10 -11 12 16 29 -32 -34 37 0
-3 11 12 -14 -17 22 32 33 39 0
3 4 8 16 -24 25 31 33 -36 0
5 -9 -14 18 21 23 26 -33 -35 0
3 -9 -14 -19 -27 -32 37 38 40 0
-1 -10 14 -20 21 -23 -29 -37 38 0
-2 -4 -9 -10 -20 21 22 36 -37 0
-1 3 9 15 16 -23 -27 -31 -33 0
4 7 -8 -21 23 24 -26 36 -37 0
-1 -5 11 -20 -23 26 30 32 38 0
2 3 8 -13 25 29 30 34 39 0
